QPLIB_2445
LCQ
minimize
143 # number of variables
80 # number of constraints
0.0 # default value for linear coefficients in objective
35 # number of non-default linear coefficients in objective
1 1.0
2 1.0
3 1.0
4 1.0
5 1.0
6 1.0
7 1.0
8 1.0
9 1.0
10 1.0
11 1.0
12 1.0
13 1.0
14 1.0
15 1.0
16 1.0
17 1.0
18 1.0
19 1.0
20 1.0
21 1.0
22 1.0
23 1.0
24 1.0
25 1.0
26 1.0
27 1.0
28 1.0
29 1.0
30 1.0
31 1.0
32 1.0
33 1.0
34 1.0
35 1.0
0.0 # objective constant
240 # number of quadratic terms in all constraints
15 786723430 1 2.0
15 786723430 1 -2.0
15 786723430 1 -2.0
15 786723430 1 -2.0
15 786723430 1 -2.0
16 32560 -1074790399 2.0
16 32560 -1074790399 -2.0
16 32560 -1074790399 -2.0
16 32560 -1074790399 -2.0
16 32560 -1074790399 -2.0
17 19983441 1 2.0
17 19983441 1 -2.0
17 19983441 1 -2.0
17 19983441 1 -2.0
17 19983441 1 -2.0
18 1 -1074790399 2.0
18 1 -1074790399 -2.0
18 1 -1074790399 -2.0
18 1 -1074790399 -2.0
18 1 -1074790399 -2.0
19 1970417268 130 2.0
19 1970417268 130 -2.0
19 1970417268 130 -2.0
19 1970417268 130 -2.0
19 1970417268 130 -2.0
20 32623 1 2.0
20 32623 1 -2.0
20 32623 1 -2.0
20 32623 1 -2.0
20 32623 1 -2.0
21 762848481 65 2.0
21 762848481 65 -2.0
21 762848481 65 -2.0
21 762848481 65 -2.0
21 762848481 65 -2.0
22 32560 1 2.0
22 32560 1 -2.0
22 32560 1 -2.0
22 32560 1 -2.0
22 32560 1 -2.0
23 50 2 2.0
23 50 2 -2.0
23 50 2 -2.0
23 50 2 -2.0
23 50 2 -2.0
24 1 1 2.0
24 1 1 -2.0
24 1 1 -2.0
24 1 1 -2.0
24 1 1 -2.0
25 1651076121 19983089 2.0
25 1651076121 19983089 -2.0
25 1651076121 19983089 -2.0
25 1651076121 19983089 -2.0
25 1651076121 19983089 -2.0
26 1668574818 1 2.0
26 1668574818 1 -2.0
26 1668574818 1 -2.0
26 1668574818 1 -2.0
26 1668574818 1 -2.0
27 1651076196 1 2.0
27 1651076196 1 -2.0
27 1651076196 1 -2.0
27 1651076196 1 -2.0
27 1651076196 1 -2.0
28 1932407863 1 2.0
28 1932407863 1 -2.0
28 1932407863 1 -2.0
28 1932407863 1 -2.0
28 1932407863 1 -2.0
29 1851859056 19976769 2.0
29 1851859056 19976769 -2.0
29 1851859056 19976769 -2.0
29 1851859056 19976769 -2.0
29 1851859056 19976769 -2.0
30 540090485 1 2.0
30 540090485 1 -2.0
30 540090485 1 -2.0
30 540090485 1 -2.0
30 540090485 1 -2.0
31 19983121 49 2.0
31 19983121 49 -2.0
31 19983121 49 -2.0
31 19983121 49 -2.0
31 19983121 49 -2.0
32 1 1 2.0
32 1 1 -2.0
32 1 1 -2.0
32 1 1 -2.0
32 1 1 -2.0
33 1 1 2.0
33 1 1 -2.0
33 1 1 -2.0
33 1 1 -2.0
33 1 1 -2.0
34 1 1 2.0
34 1 1 -2.0
34 1 1 -2.0
34 1 1 -2.0
34 1 1 -2.0
35 50 1 2.0
35 50 1 -2.0
35 50 1 -2.0
35 50 1 -2.0
35 50 1 -2.0
36 1 1 2.0
36 1 1 -2.0
36 1 1 -2.0
36 1 1 -2.0
36 1 1 -2.0
37 1651076121 1 2.0
37 1651076121 1 -2.0
37 1651076121 1 -2.0
37 1651076121 1 -2.0
37 1651076121 1 -2.0
38 1668834403 2 2.0
38 1668834403 2 -2.0
38 1668834403 2 -2.0
38 1668834403 2 -2.0
38 1668834403 2 -2.0
39 1651076196 1 -2.0
39 1651076196 1 -2.0
39 1651076196 1 -2.0
39 1651076196 1 -2.0
40 1932407863 1 -2.0
40 1932407863 1 -2.0
40 1932407863 1 -2.0
40 1932407863 1 -2.0
41 1684152432 2 -2.0
41 1684152432 2 -2.0
41 1684152432 2 -2.0
41 1684152432 2 -2.0
42 540156025 2 -2.0
42 540156025 2 -2.0
42 540156025 2 -2.0
42 540156025 2 -2.0
43 825307441 1 -2.0
43 825307441 1 -2.0
43 825307441 1 -2.0
43 825307441 1 -2.0
44 824193057 1 -2.0
44 824193057 1 -2.0
44 824193057 1 -2.0
44 824193057 1 -2.0
45 807415841 124 -2.0
45 807415841 124 -2.0
45 807415841 124 -2.0
45 807415841 124 -2.0
46 824193057 1 -2.0
46 824193057 1 -2.0
46 824193057 1 -2.0
46 824193057 1 -2.0
47 -2147483648 50 -2.0
47 -2147483648 50 -2.0
47 -2147483648 50 -2.0
47 -2147483648 50 -2.0
48 256 1 -2.0
48 256 1 -2.0
48 256 1 -2.0
48 256 1 -2.0
49 1651076122 1 -2.0
49 1651076122 1 -2.0
49 1651076122 1 -2.0
49 1651076122 1 -2.0
50 1852403556 1 -2.0
50 1852403556 1 -2.0
50 1852403556 1 -2.0
50 1852403556 1 -2.0
51 1768711012 34 -2.0
51 1768711012 34 -2.0
51 1768711012 34 -2.0
51 1768711012 34 -2.0
52 775173731 1 -2.0
52 775173731 1 -2.0
52 775173731 1 -2.0
52 775173731 1 -2.0
53 1953845015 1646292852 -2.0
53 1953845015 1646292852 -2.0
53 1953845015 1646292852 -2.0
53 1953845015 1646292852 -2.0
54 824209008 544503153 -2.0
54 824209008 544503153 -2.0
54 824209008 544503153 -2.0
54 824209008 544503153 -2.0
55 1701603687 174993441 -2.0
55 1701603687 174993441 -2.0
55 1701603687 174993441 -2.0
55 1701603687 174993441 -2.0
56 1735617896 1734438945 -2.0
56 1735617896 1734438945 -2.0
56 1735617896 1734438945 -2.0
56 1735617896 1734438945 -2.0
57 1769414758 49 2.0
57 1769414758 49 -2.0
58 6845541 1 2.0
58 6845541 1 -2.0
59 306 34 2.0
59 306 34 -2.0
60 1 1 2.0
60 1 1 -2.0
61 1734430730 786758809 2.0
61 1734430730 786758809 -2.0
62 1684625254 32560 2.0
62 1684625254 32560 -2.0
63 786720885 19981073 2.0
63 786720885 19981073 -2.0
64 32560 1 2.0
64 32560 1 -2.0
65 19987073 19980081 2.0
65 19987073 19980081 -2.0
66 1 1 2.0
66 1 1 -2.0
67 19980129 50 2.0
67 19980129 50 -2.0
68 1 1 2.0
68 1 1 -2.0
69 1734430730 19981313 2.0
69 1734430730 19981313 -2.0
70 1684625254 1 2.0
70 1684625254 1 -2.0
71 786720885 1 2.0
71 786720885 1 -2.0
72 32560 23 2.0
72 32560 23 -2.0
73 19987505 23 2.0
73 19987505 23 -2.0
74 23 1 2.0
74 23 1 -2.0
75 19987297 23 2.0
75 19987297 23 -2.0
76 23 1 2.0
76 23 1 -2.0
77 49 23 2.0
77 49 23 -2.0
78 23 1 2.0
78 23 1 -2.0
79 34 23 2.0
79 34 23 -2.0
80 23 1 2.0
80 23 1 -2.0
470 # number of linear terms in all constraints
1 1 -1.0
1 8 -1.0
1 15 -1.0
1 22 -1.0
1 29 -1.0
1 84 1.0
1 85 -1.0
1 86 -1.0
1 87 -1.0
1 88 -1.0
1 89 -1.0
1 90 -1.0
1 91 -1.0
2 2 -1.0
2 9 -1.0
2 16 -1.0
2 23 -1.0
2 30 -1.0
2 92 1.0
2 93 -1.0
2 94 -1.0
2 95 -1.0
2 96 -1.0
2 97 -1.0
2 98 -1.0
2 99 -1.0
3 3 -1.0
3 10 -1.0
3 17 -1.0
3 24 -1.0
3 31 -1.0
3 100 1.0
3 101 -1.0
3 102 -1.0
3 103 -1.0
3 104 -1.0
3 105 -1.0
3 106 -1.0
3 107 -1.0
4 4 -1.0
4 11 -1.0
4 18 -1.0
4 25 -1.0
4 32 -1.0
4 108 1.0
4 109 -1.0
4 110 -1.0
4 111 -1.0
4 112 -1.0
4 113 -1.0
4 114 -1.0
4 115 -1.0
5 5 -1.0
5 12 -1.0
5 19 -1.0
5 26 -1.0
5 33 -1.0
5 116 -1.0
5 117 -1.0
5 118 -1.0
5 119 -1.0
5 120 -1.0
5 121 -1.0
5 122 -1.0
6 6 -1.0
6 13 -1.0
6 20 -1.0
6 27 -1.0
6 34 -1.0
6 123 -1.0
6 124 -1.0
6 125 -1.0
6 126 -1.0
6 127 -1.0
6 128 -1.0
6 129 -1.0
7 7 -1.0
7 14 -1.0
7 21 -1.0
7 28 -1.0
7 35 -1.0
7 130 -1.0
7 131 -1.0
7 132 -1.0
7 133 -1.0
7 134 -1.0
7 135 -1.0
7 136 -1.0
8 84 1.0
8 85 -1.0
8 93 -1.0
8 101 -1.0
8 109 -1.0
8 116 -1.0
8 123 -1.0
8 130 -1.0
8 137 -1.0
9 86 -1.0
9 92 1.0
9 94 -1.0
9 102 -1.0
9 110 -1.0
9 117 -1.0
9 124 -1.0
9 131 -1.0
9 138 -1.0
10 87 -1.0
10 95 -1.0
10 100 1.0
10 103 -1.0
10 111 -1.0
10 118 -1.0
10 125 -1.0
10 132 -1.0
10 139 -1.0
11 88 -1.0
11 96 -1.0
11 104 -1.0
11 108 1.0
11 112 -1.0
11 119 -1.0
11 126 -1.0
11 133 -1.0
11 140 -1.0
12 89 -1.0
12 97 -1.0
12 105 -1.0
12 113 -1.0
12 120 -1.0
12 127 -1.0
12 134 -1.0
12 141 -1.0
13 90 -1.0
13 98 -1.0
13 106 -1.0
13 114 -1.0
13 121 -1.0
13 128 -1.0
13 135 -1.0
13 142 -1.0
14 91 -1.0
14 99 -1.0
14 107 -1.0
14 115 -1.0
14 122 -1.0
14 129 -1.0
14 136 -1.0
14 143 -1.0
15 1 -1.0
15 8 -6.0
15 15 -4.0
15 22 -7.0
15 29 -6.0
15 89 -421.0
15 90 -112.0
15 91 -491.0
16 1 -2.0
16 8 -2.0
16 15 -8.0
16 22 -9.0
16 29 -9.0
16 89 -316.0
16 90 -429.0
16 91 -476.0
17 1 -2.0
17 8 -2.0
17 15 -6.0
17 22 -5.0
17 29 -2.0
17 89 -391.0
17 90 -505.0
17 91 -197.0
18 1 -5.0
18 8 -3.0
18 15 -3.0
18 22 -1.0
18 29 -1.0
18 89 -352.0
18 90 -266.0
18 91 -493.0
19 1 -2.0
19 8 -6.0
19 15 -2.0
19 22 -1.0
19 29 -6.0
19 89 -461.0
19 90 -481.0
19 91 -399.0
20 1 -10.0
20 15 -1.0
20 29 -4.0
20 89 -489.0
20 90 -505.0
20 91 -495.0
21 2 -1.0
21 9 -6.0
21 16 -4.0
21 23 -7.0
21 30 -6.0
21 97 -421.0
21 98 -112.0
21 99 -491.0
22 2 -2.0
22 9 -2.0
22 16 -8.0
22 23 -9.0
22 30 -9.0
22 97 -316.0
22 98 -429.0
22 99 -476.0
23 2 -2.0
23 9 -2.0
23 16 -6.0
23 23 -5.0
23 30 -2.0
23 97 -391.0
23 98 -505.0
23 99 -197.0
24 2 -5.0
24 9 -3.0
24 16 -3.0
24 23 -1.0
24 30 -1.0
24 97 -352.0
24 98 -266.0
24 99 -493.0
25 2 -2.0
25 9 -6.0
25 16 -2.0
25 23 -1.0
25 30 -6.0
25 97 -461.0
25 98 -481.0
25 99 -399.0
26 2 -10.0
26 16 -1.0
26 30 -4.0
26 97 -489.0
26 98 -505.0
26 99 -495.0
27 3 -1.0
27 10 -6.0
27 17 -4.0
27 24 -7.0
27 31 -6.0
27 105 -421.0
27 106 -112.0
27 107 -491.0
28 3 -2.0
28 10 -2.0
28 17 -8.0
28 24 -9.0
28 31 -9.0
28 105 -316.0
28 106 -429.0
28 107 -476.0
29 3 -2.0
29 10 -2.0
29 17 -6.0
29 24 -5.0
29 31 -2.0
29 105 -391.0
29 106 -505.0
29 107 -197.0
30 3 -5.0
30 10 -3.0
30 17 -3.0
30 24 -1.0
30 31 -1.0
30 105 -352.0
30 106 -266.0
30 107 -493.0
31 3 -2.0
31 10 -6.0
31 17 -2.0
31 24 -1.0
31 31 -6.0
31 105 -461.0
31 106 -481.0
31 107 -399.0
32 3 -10.0
32 17 -1.0
32 31 -4.0
32 105 -489.0
32 106 -505.0
32 107 -495.0
33 4 -1.0
33 11 -6.0
33 18 -4.0
33 25 -7.0
33 32 -6.0
33 113 -421.0
33 114 -112.0
33 115 -491.0
34 4 -2.0
34 11 -2.0
34 18 -8.0
34 25 -9.0
34 32 -9.0
34 113 -316.0
34 114 -429.0
34 115 -476.0
35 4 -2.0
35 11 -2.0
35 18 -6.0
35 25 -5.0
35 32 -2.0
35 113 -391.0
35 114 -505.0
35 115 -197.0
36 4 -5.0
36 11 -3.0
36 18 -3.0
36 25 -1.0
36 32 -1.0
36 113 -352.0
36 114 -266.0
36 115 -493.0
37 4 -2.0
37 11 -6.0
37 18 -2.0
37 25 -1.0
37 32 -6.0
37 113 -461.0
37 114 -481.0
37 115 -399.0
38 4 -10.0
38 18 -1.0
38 32 -4.0
38 113 -489.0
38 114 -505.0
38 115 -495.0
39 5 -1.0
39 12 -6.0
39 19 -4.0
39 26 -7.0
39 33 -6.0
39 120 -421.0
39 121 -112.0
39 122 -491.0
40 5 -2.0
40 12 -2.0
40 19 -8.0
40 26 -9.0
40 33 -9.0
40 120 -316.0
40 121 -429.0
40 122 -476.0
41 5 -2.0
41 12 -2.0
41 19 -6.0
41 26 -5.0
41 33 -2.0
41 120 -391.0
41 121 -505.0
41 122 -197.0
42 5 -5.0
42 12 -3.0
42 19 -3.0
42 26 -1.0
42 33 -1.0
42 120 -352.0
42 121 -266.0
42 122 -493.0
43 5 -2.0
43 12 -6.0
43 19 -2.0
43 26 -1.0
43 33 -6.0
43 120 -461.0
43 121 -481.0
43 122 -399.0
44 5 -10.0
44 19 -1.0
44 33 -4.0
44 120 -489.0
44 121 -505.0
44 122 -495.0
45 6 -1.0
45 13 -6.0
45 20 -4.0
45 27 -7.0
45 34 -6.0
45 127 -421.0
45 128 -112.0
45 129 -491.0
46 6 -2.0
46 13 -2.0
46 20 -8.0
46 27 -9.0
46 34 -9.0
46 127 -316.0
46 128 -429.0
46 129 -476.0
47 6 -2.0
47 13 -2.0
47 20 -6.0
47 27 -5.0
47 34 -2.0
47 127 -391.0
47 128 -505.0
47 129 -197.0
48 6 -5.0
48 13 -3.0
48 20 -3.0
48 27 -1.0
48 34 -1.0
48 127 -352.0
48 128 -266.0
48 129 -493.0
49 6 -2.0
49 13 -6.0
49 20 -2.0
49 27 -1.0
49 34 -6.0
49 127 -461.0
49 128 -481.0
49 129 -399.0
50 6 -10.0
50 20 -1.0
50 34 -4.0
50 127 -489.0
50 128 -505.0
50 129 -495.0
51 7 -1.0
51 14 -6.0
51 21 -4.0
51 28 -7.0
51 35 -6.0
51 134 -421.0
51 135 -112.0
51 136 -491.0
52 7 -2.0
52 14 -2.0
52 21 -8.0
52 28 -9.0
52 35 -9.0
52 134 -316.0
52 135 -429.0
52 136 -476.0
53 7 -2.0
53 14 -2.0
53 21 -6.0
53 28 -5.0
53 35 -2.0
53 134 -391.0
53 135 -505.0
53 136 -197.0
54 7 -5.0
54 14 -3.0
54 21 -3.0
54 28 -1.0
54 35 -1.0
54 134 -352.0
54 135 -266.0
54 136 -493.0
55 7 -2.0
55 14 -6.0
55 21 -2.0
55 28 -1.0
55 35 -6.0
55 134 -461.0
55 135 -481.0
55 136 -399.0
56 7 -10.0
56 21 -1.0
56 35 -4.0
56 134 -489.0
56 135 -505.0
56 136 -495.0
1.79769313486232E+308 # value for infinity
0.0 # default left-hand-side value
48 # number of non-default left-hand-sides
5 -80.0
6 -80.0
7 -70.0
12 -30.0
13 -100.0
14 -90.0
39 -25520.0
40 -24240.0
41 -18320.0
42 -23680.0
43 -1040.0
44 -36320.0
45 -3440.0
46 -27360.0
47 -18560.0
48 -21200.0
49 -31440.0
50 -23920.0
51 -31640.0
52 -4480.0
53 -700.0
54 -23380.0
55 -10010.0
56 -17080.0
57 -19900.0
58 -1700.0
59 -19700.0
60 -18600.0
61 -47600.0
62 -7300.0
63 -6700.0
64 -4300.0
65 -7700.0
66 -20800.0
67 -5000.0
68 -13600.0
69 -8640.0
70 -640.0
71 -2000.0
72 -600.0
73 -7040.0
74 -2480.0
75 -12240.0
76 -12420.0
77 -3150.0
78 -14400.0
79 -810.0
80 -15660.0
0.0 # default right-hand-side value
48 # number of non-default right-hand-sides
5 -80.0
6 -80.0
7 -70.0
12 -30.0
13 -100.0
14 -90.0
39 1.79769313486232E+308
40 1.79769313486232E+308
41 1.79769313486232E+308
42 1.79769313486232E+308
43 1.79769313486232E+308
44 1.79769313486232E+308
45 1.79769313486232E+308
46 1.79769313486232E+308
47 1.79769313486232E+308
48 1.79769313486232E+308
49 1.79769313486232E+308
50 1.79769313486232E+308
51 1.79769313486232E+308
52 1.79769313486232E+308
53 1.79769313486232E+308
54 1.79769313486232E+308
55 1.79769313486232E+308
56 1.79769313486232E+308
57 -19900.0
58 -1700.0
59 -19700.0
60 -18600.0
61 -47600.0
62 -7300.0
63 -6700.0
64 -4300.0
65 -7700.0
66 -20800.0
67 -5000.0
68 -13600.0
69 -8640.0
70 -640.0
71 -2000.0
72 -600.0
73 -7040.0
74 -2480.0
75 -12240.0
76 -12420.0
77 -3150.0
78 -14400.0
79 -810.0
80 -15660.0
0.0 # default variable lower bound value
0 # number of non-default variable lower bounds
100000.0 # default variable upper bound value
52 # number of non-default variable upper bounds
36 65.0
37 465.0
38 166.0
39 56.0
40 33.0
41 346.0
42 448.0
43 414.0
44 268.0
45 191.0
46 350.0
47 243.0
48 171.0
49 496.0
50 406.0
51 486.0
52 323.0
53 355.0
54 139.0
55 211.0
56 469.0
57 65.0
58 259.0
59 328.0
60 264.0
61 482.0
62 363.0
63 242.0
64 509.0
65 419.0
66 515.0
67 457.0
68 345.0
69 399.0
70 400.0
71 379.0
72 387.0
73 512.0
74 456.0
75 501.0
76 499.0
77 417.0
78 275.0
79 349.0
80 504.0
81 225.0
82 268.0
83 502.0
84 100.0
92 100.0
100 40.0
108 90.0
0.0 # default variable primal value in starting point
0 # number of non-default variable primal values in starting point
0.0 # default constraint dual value in starting point
0 # number of non-default constraint dual values in starting point
0.0 # default variable bound dual value in starting point
0 # number of non-default variable bound dual values in starting point
0 # number of non-default variable names
0 # number of non-default constraint names
